(set-option :produce-models true)
(set-logic QF_UF)
(declare-fun p12() Bool)
(declare-fun p10() Bool)
(declare-fun p7() Bool)
(declare-fun p8() Bool)
(declare-fun p2() Bool)
(declare-fun p18() Bool)
(declare-fun p6() Bool)
(declare-fun p19() Bool)
(declare-fun p1() Bool)
(declare-fun p4() Bool)
(declare-fun p16() Bool)
(declare-fun p13() Bool)
(declare-fun p3() Bool)
(declare-fun p11() Bool)
(declare-fun p15() Bool)
(declare-fun p17() Bool)
(declare-fun p5() Bool)
(declare-fun p14() Bool)
(declare-fun p9() Bool)
(declare-fun p0() Bool)
(assert
(and (or p12 p10 p7) (or (not p8) p2 p10) (or p18 p6 p8) (or (not p19) (not p1) (not p4)) (or p8 p16 (not p13)) (or p3 p3 (not p4)) (or p11 p15 p19) (or (not p8) p10 (not p17)) (or (not p7) (not p1) (not p15)) (or p15 (not p5) p16) (or (not p7) (not p14) p2) (or (not p17) p12 (not p4)) (or p2 p9 p3) (or p14 (not p15) (not p0)) (or (not p12) (not p17) (not p14)) (or p15 p8 p5) (or (not p12) (not p16) (not p2)) (or (not p8) (not p12) (not p15)) (or p10 (not p11) (not p8)) (or (not p16) p14 p14) (or p7 (not p7) (not p12)) (or p12 p7 p19) (or p12 (not p10) (not p11)) (or (not p1) (not p9) (not p12)) (or (not p17) (not p15) p6) (or (not p7) p5 p18) (or p9 (not p0) p19) (or p5 (not p5) p14) (or p12 (not p4) p7) (or (not p3) p8 (not p3)) (or p8 p17 (not p6)) (or p10 (not p4) p10) (or (not p9) p6 (not p6)) (or (not p2) p7 p19) (or p8 p15 p2) (or p14 p3 p14) (or (not p14) p16 (not p12)) (or (not p11) (not p12) p17) (or (not p16) (not p10) (not p15)) (or (not p7) (not p12) (not p8)) (or p14 p18 (not p18)) (or (not p7) (not p18) (not p0)) (or p6 p11 p15) (or (not p4) p0 (not p14)) (or (not p15) p8 p18) (or (not p12) (not p17) p8) (or p7 (not p13) p7) (or p9 p17 p4) (or (not p16) p18 (not p17)) (or (not p19) p4 (not p11)) (or (not p7) p0 (not p0)) (or (not p8) p2 (not p12)) (or (not p5) (not p15) p5) (or (not p7) p5 (not p15)) (or p3 (not p10) (not p4)) (or (not p2) (not p8) p12) (or p12 p0 (not p8)) (or (not p6) p1 (not p0)) (or p5 p3 (not p3)) (or p12 (not p19) p16) (or p6 (not p5) p9) (or p9 p15 (not p5)) (or p11 p12 (not p7)) (or p9 (not p7) p7) (or (not p15) (not p17) p17) (or p4 (not p10) (not p16)) (or (not p8) (not p7) p0) (or (not p17) p15 (not p8)) (or p3 (not p18) p14) (or p10 p10 p7) (or p7 p19 (not p8)) (or p13 (not p15) p9) (or p2 p1 p9) (or (not p9) p8 (not p19)) (or (not p14) (not p12) (not p14)) (or (not p10) (not p1) p3) (or (not p6) (not p10) (not p2)) (or (not p10) p0 p3) (or p0 (not p6) (not p2)) (or (not p5) (not p8) p2) (or (not p0) (not p5) p11) (or (not p19) (not p17) (not p1)) (or (not p4) (not p3) (not p18)) (or (not p16) p2 (not p0)) (or p8 (not p4) p13) (or p1 (not p11) p13) (or p19 (not p1) (not p4)))
)
(check-sat)
(get-model)
